400
750
598
596
595
593
590
590
590
589
588
588
583
581
579
578
578
576
576
574
574
572
572
572
568
566
564
564
563
563
562
558
558
558
558
557
556
554
553
553
553
553
550
550
549
548
547
546
546
545
545
544
544
543
540
539
539
538
535
535
533
531
530
530
530
528
527
527
527
523
521
519
518
517
516
516
516
515
515
513
512
512
510
510
510
507
506
503
502
501
501
500
500
498
498
496
495
492
492
491
488
487
484
483
482
481
481
479
479
479
479
477
477
476
470
469
469
469
469
468
467
467
466
465
460
458
457
457
455
454
450
449
448
448
447
444
443
441
441
440
439
438
438
435
435
434
434
431
430
430
430
429
427
421
420
418
417
416
411
411
410
409
408
408
408
406
404
404
404
402
402
402
401
401
401
400
399
398
396
395
394
393
391
389
386
386
385
384
382
382
382
381
381
380
379
379
378
378
377
377
376
374
374
369
368
365
365
364
362
362
362
360
360
359
359
357
357
356
355
354
353
352
352
352
351
351
350
349
348
346
346
346
346
343
342
342
341
341
340
339
339
337
336
336
334
334
334
332
330
328
327
325
325
324
324
321
321
319
317
317
316
316
313
313
313
312
310
307
306
306
303
303
303
303
303
302
301
300
299
298
298
296
296
292
290
288
288
286
285
284
283
282
282
281
280
280
279
279
277
274
274
274
274
274
269
267
266
266
265
263
263
263
262
262
262
259
259
258
256
254
254
253
253
251
249
243
243
241
239
239
239
238
237
237
235
234
234
233
230
230
228
228
226
224
222
222
221
221
220
219
217
217
212
211
208
207
206
205
205
204
204
203
203
203
203
202
202
201
201
201
200
200
200
199
195
195
193
193
191
191
182
181
180
178
176
175
174
169
167
166
166
163
163
162
162
160
160
157
156
156
154
152
